
  17    4
  10   10   10   10

   0   0   0   0   0   4 2 3 4 6 
   1  10  10  10  10   4 16 8 7 5 
  10  10  10  10  10   4 16 8 7 5 
   7  10  10  10  10   4 16 15 9 7 
   1  10  10  10  10   4 15 14 10 9 
   2  10  10  10  10   3 16 12 9 
   5  10  10  10  10   3 14 12 11 
   3  10  10  10  10   3 15 14 11 
   4  10  10  10  10   2 13 11 
   5  10  10  10  10   2 13 12 
   2  10  10  10  10   1 17
   2  10  10  10  10   1 17
   4  10  10  10  10   1 17
   1  10  10  10  10   1 17
  10  10  10  10  10   1 17
   6  10  10  10  10   1 17
   0   0   0   0   0   0 
